c nIsolatedPIs 5
c maxPI 130
p cnf 691 1684
c gate 131 -87 -125 0
-87 -131 0
-125 -131 0
87 125 131 0
c gate 132 -85 125 0
-85 -132 0
125 -132 0
85 -125 132 0
c gate 133 124 -132 0
124 -133 0
-132 -133 0
-124 132 133 0
c gate 134 -131 133 0
-131 -134 0
133 -134 0
131 -133 134 0
c gate 135 -88 -125 0
-88 -135 0
-125 -135 0
88 125 135 0
c gate 136 -86 125 0
-86 -136 0
125 -136 0
86 -125 136 0
c gate 137 -135 -136 0
-135 -137 0
-136 -137 0
135 136 137 0
c gate 138 -124 137 0
-124 -138 0
137 -138 0
124 -137 138 0
c gate 139 127 -138 0
127 -139 0
-138 -139 0
-127 138 139 0
c gate 140 -134 139 0
-134 -140 0
139 -140 0
134 -139 140 0
c gate 141 -95 -125 0
-95 -141 0
-125 -141 0
95 125 141 0
c gate 142 -93 125 0
-93 -142 0
125 -142 0
93 -125 142 0
c gate 143 124 -142 0
124 -143 0
-142 -143 0
-124 142 143 0
c gate 144 -141 143 0
-141 -144 0
143 -144 0
141 -143 144 0
c gate 145 -96 -125 0
-96 -145 0
-125 -145 0
96 125 145 0
c gate 146 -94 125 0
-94 -146 0
125 -146 0
94 -125 146 0
c gate 147 -145 -146 0
-145 -147 0
-146 -147 0
145 146 147 0
c gate 148 -124 147 0
-124 -148 0
147 -148 0
124 -147 148 0
c gate 149 -127 -148 0
-127 -149 0
-148 -149 0
127 148 149 0
c gate 150 -144 149 0
-144 -150 0
149 -150 0
144 -149 150 0
c gate 151 -126 -150 0
-126 -151 0
-150 -151 0
126 150 151 0
c gate 152 -140 151 0
-140 -152 0
151 -152 0
140 -151 152 0
c gate 153 -91 -125 0
-91 -153 0
-125 -153 0
91 125 153 0
c gate 154 -89 125 0
-89 -154 0
125 -154 0
89 -125 154 0
c gate 155 124 -154 0
124 -155 0
-154 -155 0
-124 154 155 0
c gate 156 -153 155 0
-153 -156 0
155 -156 0
153 -155 156 0
c gate 157 -92 -125 0
-92 -157 0
-125 -157 0
92 125 157 0
c gate 158 -90 125 0
-90 -158 0
125 -158 0
90 -125 158 0
c gate 159 -157 -158 0
-157 -159 0
-158 -159 0
157 158 159 0
c gate 160 -124 159 0
-124 -160 0
159 -160 0
124 -159 160 0
c gate 161 -127 -160 0
-127 -161 0
-160 -161 0
127 160 161 0
c gate 162 -156 161 0
-156 -162 0
161 -162 0
156 -161 162 0
c gate 163 -82 125 0
-82 -163 0
125 -163 0
82 -125 163 0
c gate 164 -84 -125 0
-84 -164 0
-125 -164 0
84 125 164 0
c gate 165 -124 -164 0
-124 -165 0
-164 -165 0
124 164 165 0
c gate 166 -163 165 0
-163 -166 0
165 -166 0
163 -165 166 0
c gate 167 -81 125 0
-81 -167 0
125 -167 0
81 -125 167 0
c gate 168 -83 -125 0
-83 -168 0
-125 -168 0
83 125 168 0
c gate 169 124 -168 0
124 -169 0
-168 -169 0
-124 168 169 0
c gate 170 -167 169 0
-167 -170 0
169 -170 0
167 -169 170 0
c gate 171 127 -170 0
127 -171 0
-170 -171 0
-127 170 171 0
c gate 172 -166 171 0
-166 -172 0
171 -172 0
166 -171 172 0
c gate 173 126 -172 0
126 -173 0
-172 -173 0
-126 172 173 0
c gate 174 -162 173 0
-162 -174 0
173 -174 0
162 -173 174 0
c gate 175 -152 -174 0
-152 -175 0
-174 -175 0
152 174 175 0
c gate 176 129 -175 0
129 -176 0
-175 -176 0
-129 175 176 0
c gate 177 -117 -125 0
-117 -177 0
-125 -177 0
117 125 177 0
c gate 178 -115 125 0
-115 -178 0
125 -178 0
115 -125 178 0
c gate 179 124 -178 0
124 -179 0
-178 -179 0
-124 178 179 0
c gate 180 -177 179 0
-177 -180 0
179 -180 0
177 -179 180 0
c gate 181 -118 -125 0
-118 -181 0
-125 -181 0
118 125 181 0
c gate 182 -116 125 0
-116 -182 0
125 -182 0
116 -125 182 0
c gate 183 -181 -182 0
-181 -183 0
-182 -183 0
181 182 183 0
c gate 184 -124 183 0
-124 -184 0
183 -184 0
124 -183 184 0
c gate 185 127 -184 0
127 -185 0
-184 -185 0
-127 184 185 0
c gate 186 -180 185 0
-180 -186 0
185 -186 0
180 -185 186 0
c gate 187 -2 -125 0
-2 -187 0
-125 -187 0
2 125 187 0
c gate 188 -123 125 0
-123 -188 0
125 -188 0
123 -125 188 0
c gate 189 124 -188 0
124 -189 0
-188 -189 0
-124 188 189 0
c gate 190 -187 189 0
-187 -190 0
189 -190 0
187 -189 190 0
c gate 191 -3 -125 0
-3 -191 0
-125 -191 0
3 125 191 0
c gate 192 -1 125 0
-1 -192 0
125 -192 0
1 -125 192 0
c gate 193 -191 -192 0
-191 -193 0
-192 -193 0
191 192 193 0
c gate 194 -124 193 0
-124 -194 0
193 -194 0
124 -193 194 0
c gate 195 -127 -194 0
-127 -195 0
-194 -195 0
127 194 195 0
c gate 196 -190 195 0
-190 -196 0
195 -196 0
190 -195 196 0
c gate 197 -126 -196 0
-126 -197 0
-196 -197 0
126 196 197 0
c gate 198 -186 197 0
-186 -198 0
197 -198 0
186 -197 198 0
c gate 199 -121 -125 0
-121 -199 0
-125 -199 0
121 125 199 0
c gate 200 -119 125 0
-119 -200 0
125 -200 0
119 -125 200 0
c gate 201 124 -200 0
124 -201 0
-200 -201 0
-124 200 201 0
c gate 202 -199 201 0
-199 -202 0
201 -202 0
199 -201 202 0
c gate 203 -122 -125 0
-122 -203 0
-125 -203 0
122 125 203 0
c gate 204 -120 125 0
-120 -204 0
125 -204 0
120 -125 204 0
c gate 205 -203 -204 0
-203 -205 0
-204 -205 0
203 204 205 0
c gate 206 -124 205 0
-124 -206 0
205 -206 0
124 -205 206 0
c gate 207 -127 -206 0
-127 -207 0
-206 -207 0
127 206 207 0
c gate 208 -202 207 0
-202 -208 0
207 -208 0
202 -207 208 0
c gate 209 -112 125 0
-112 -209 0
125 -209 0
112 -125 209 0
c gate 210 -114 -125 0
-114 -210 0
-125 -210 0
114 125 210 0
c gate 211 -124 -210 0
-124 -211 0
-210 -211 0
124 210 211 0
c gate 212 -209 211 0
-209 -212 0
211 -212 0
209 -211 212 0
c gate 213 -111 125 0
-111 -213 0
125 -213 0
111 -125 213 0
c gate 214 -113 -125 0
-113 -214 0
-125 -214 0
113 125 214 0
c gate 215 124 -214 0
124 -215 0
-214 -215 0
-124 214 215 0
c gate 216 -213 215 0
-213 -216 0
215 -216 0
213 -215 216 0
c gate 217 127 -216 0
127 -217 0
-216 -217 0
-127 216 217 0
c gate 218 -212 217 0
-212 -218 0
217 -218 0
212 -217 218 0
c gate 219 126 -218 0
126 -219 0
-218 -219 0
-126 218 219 0
c gate 220 -208 219 0
-208 -220 0
219 -220 0
208 -219 220 0
c gate 221 -198 -220 0
-198 -221 0
-220 -221 0
198 220 221 0
c gate 222 -129 -221 0
-129 -222 0
-221 -222 0
129 221 222 0
c gate 223 128 -222 0
128 -223 0
-222 -223 0
-128 222 223 0
c gate 224 -176 223 0
-176 -224 0
223 -224 0
176 -223 224 0
c gate 225 130 224 0
130 -225 0
224 -225 0
-130 -224 225 0
c gate 226 -74 -125 0
-74 -226 0
-125 -226 0
74 125 226 0
c gate 227 -72 125 0
-72 -227 0
125 -227 0
72 -125 227 0
c gate 228 124 -227 0
124 -228 0
-227 -228 0
-124 227 228 0
c gate 229 -226 228 0
-226 -229 0
228 -229 0
226 -228 229 0
c gate 230 -75 -125 0
-75 -230 0
-125 -230 0
75 125 230 0
c gate 231 -73 125 0
-73 -231 0
125 -231 0
73 -125 231 0
c gate 232 -230 -231 0
-230 -232 0
-231 -232 0
230 231 232 0
c gate 233 -124 232 0
-124 -233 0
232 -233 0
124 -232 233 0
c gate 234 -127 -233 0
-127 -234 0
-233 -234 0
127 233 234 0
c gate 235 -229 234 0
-229 -235 0
234 -235 0
229 -234 235 0
c gate 236 -64 125 0
-64 -236 0
125 -236 0
64 -125 236 0
c gate 237 -66 -125 0
-66 -237 0
-125 -237 0
66 125 237 0
c gate 238 -236 -237 0
-236 -238 0
-237 -238 0
236 237 238 0
c gate 239 124 238 0
124 -239 0
238 -239 0
-124 -238 239 0
c gate 240 -67 -125 0
-67 -240 0
-125 -240 0
67 125 240 0
c gate 241 -65 125 0
-65 -241 0
125 -241 0
65 -125 241 0
c gate 242 -240 -241 0
-240 -242 0
-241 -242 0
240 241 242 0
c gate 243 -124 242 0
-124 -243 0
242 -243 0
124 -242 243 0
c gate 244 127 -243 0
127 -244 0
-243 -244 0
-127 243 244 0
c gate 245 -239 244 0
-239 -245 0
244 -245 0
239 -244 245 0
c gate 246 -235 -245 0
-235 -246 0
-245 -246 0
235 245 246 0
c gate 247 126 -246 0
126 -247 0
-246 -247 0
-126 246 247 0
c gate 248 -70 -125 0
-70 -248 0
-125 -248 0
70 125 248 0
c gate 249 -68 125 0
-68 -249 0
125 -249 0
68 -125 249 0
c gate 250 124 -249 0
124 -250 0
-249 -250 0
-124 249 250 0
c gate 251 -248 250 0
-248 -251 0
250 -251 0
248 -250 251 0
c gate 252 -71 -125 0
-71 -252 0
-125 -252 0
71 125 252 0
c gate 253 -69 125 0
-69 -253 0
125 -253 0
69 -125 253 0
c gate 254 -252 -253 0
-252 -254 0
-253 -254 0
252 253 254 0
c gate 255 -124 254 0
-124 -255 0
254 -255 0
124 -254 255 0
c gate 256 127 -255 0
127 -256 0
-255 -256 0
-127 255 256 0
c gate 257 -251 256 0
-251 -257 0
256 -257 0
251 -256 257 0
c gate 258 -78 -125 0
-78 -258 0
-125 -258 0
78 125 258 0
c gate 259 -76 125 0
-76 -259 0
125 -259 0
76 -125 259 0
c gate 260 124 -259 0
124 -260 0
-259 -260 0
-124 259 260 0
c gate 261 -258 260 0
-258 -261 0
260 -261 0
258 -260 261 0
c gate 262 -79 -125 0
-79 -262 0
-125 -262 0
79 125 262 0
c gate 263 -77 125 0
-77 -263 0
125 -263 0
77 -125 263 0
c gate 264 -262 -263 0
-262 -264 0
-263 -264 0
262 263 264 0
c gate 265 -124 264 0
-124 -265 0
264 -265 0
124 -264 265 0
c gate 266 -127 -265 0
-127 -266 0
-265 -266 0
127 265 266 0
c gate 267 -261 266 0
-261 -267 0
266 -267 0
261 -266 267 0
c gate 268 -257 -267 0
-257 -268 0
-267 -268 0
257 267 268 0
c gate 269 -126 -268 0
-126 -269 0
-268 -269 0
126 268 269 0
c gate 270 129 -269 0
129 -270 0
-269 -270 0
-129 269 270 0
c gate 271 -247 270 0
-247 -271 0
270 -271 0
247 -270 271 0
c gate 272 -99 125 0
-99 -272 0
125 -272 0
99 -125 272 0
c gate 273 -101 -125 0
-101 -273 0
-125 -273 0
101 125 273 0
c gate 274 -272 -273 0
-272 -274 0
-273 -274 0
272 273 274 0
c gate 275 124 274 0
124 -275 0
274 -275 0
-124 -274 275 0
c gate 276 -102 -125 0
-102 -276 0
-125 -276 0
102 125 276 0
c gate 277 -100 125 0
-100 -277 0
125 -277 0
100 -125 277 0
c gate 278 -124 -277 0
-124 -278 0
-277 -278 0
124 277 278 0
c gate 279 -276 278 0
-276 -279 0
278 -279 0
276 -278 279 0
c gate 280 127 -279 0
127 -280 0
-279 -280 0
-127 279 280 0
c gate 281 -275 280 0
-275 -281 0
280 -281 0
275 -280 281 0
c gate 282 -108 125 0
-108 -282 0
125 -282 0
108 -125 282 0
c gate 283 -110 -125 0
-110 -283 0
-125 -283 0
110 125 283 0
c gate 284 -124 -283 0
-124 -284 0
-283 -284 0
124 283 284 0
c gate 285 -282 284 0
-282 -285 0
284 -285 0
282 -284 285 0
c gate 286 -107 125 0
-107 -286 0
125 -286 0
107 -125 286 0
c gate 287 -109 -125 0
-109 -287 0
-125 -287 0
109 125 287 0
c gate 288 124 -287 0
124 -288 0
-287 -288 0
-124 287 288 0
c gate 289 -286 288 0
-286 -289 0
288 -289 0
286 -288 289 0
c gate 290 -127 -289 0
-127 -290 0
-289 -290 0
127 289 290 0
c gate 291 -285 290 0
-285 -291 0
290 -291 0
285 -290 291 0
c gate 292 -126 -291 0
-126 -292 0
-291 -292 0
126 291 292 0
c gate 293 -281 292 0
-281 -293 0
292 -293 0
281 -292 293 0
c gate 294 -95 125 0
-95 -294 0
125 -294 0
95 -125 294 0
c gate 295 -97 -125 0
-97 -295 0
-125 -295 0
97 125 295 0
c gate 296 -294 -295 0
-294 -296 0
-295 -296 0
294 295 296 0
c gate 297 124 296 0
124 -297 0
296 -297 0
-124 -296 297 0
c gate 298 -98 -125 0
-98 -298 0
-125 -298 0
98 125 298 0
c gate 299 -96 125 0
-96 -299 0
125 -299 0
96 -125 299 0
c gate 300 -124 -299 0
-124 -300 0
-299 -300 0
124 299 300 0
c gate 301 -298 300 0
-298 -301 0
300 -301 0
298 -300 301 0
c gate 302 127 -301 0
127 -302 0
-301 -302 0
-127 301 302 0
c gate 303 -297 302 0
-297 -303 0
302 -303 0
297 -302 303 0
c gate 304 -104 125 0
-104 -304 0
125 -304 0
104 -125 304 0
c gate 305 -106 -125 0
-106 -305 0
-125 -305 0
106 125 305 0
c gate 306 -124 -305 0
-124 -306 0
-305 -306 0
124 305 306 0
c gate 307 -304 306 0
-304 -307 0
306 -307 0
304 -306 307 0
c gate 308 -103 125 0
-103 -308 0
125 -308 0
103 -125 308 0
c gate 309 -105 -125 0
-105 -309 0
-125 -309 0
105 125 309 0
c gate 310 124 -309 0
124 -310 0
-309 -310 0
-124 309 310 0
c gate 311 -308 310 0
-308 -311 0
310 -311 0
308 -310 311 0
c gate 312 -127 -311 0
-127 -312 0
-311 -312 0
127 311 312 0
c gate 313 -307 312 0
-307 -313 0
312 -313 0
307 -312 313 0
c gate 314 126 -313 0
126 -314 0
-313 -314 0
-126 313 314 0
c gate 315 -303 314 0
-303 -315 0
314 -315 0
303 -314 315 0
c gate 316 -293 -315 0
-293 -316 0
-315 -316 0
293 315 316 0
c gate 317 -129 -316 0
-129 -317 0
-316 -317 0
129 316 317 0
c gate 318 128 -317 0
128 -318 0
-317 -318 0
-128 317 318 0
c gate 319 -271 318 0
-271 -319 0
318 -319 0
271 -318 319 0
c gate 320 130 319 0
130 -320 0
319 -320 0
-130 -319 320 0
c gate 321 -38 125 0
-38 -321 0
125 -321 0
38 -125 321 0
c gate 322 -40 -125 0
-40 -322 0
-125 -322 0
40 125 322 0
c gate 323 -124 -322 0
-124 -323 0
-322 -323 0
124 322 323 0
c gate 324 -321 323 0
-321 -324 0
323 -324 0
321 -323 324 0
c gate 325 -37 125 0
-37 -325 0
125 -325 0
37 -125 325 0
c gate 326 -39 -125 0
-39 -326 0
-125 -326 0
39 125 326 0
c gate 327 124 -326 0
124 -327 0
-326 -327 0
-124 326 327 0
c gate 328 -325 327 0
-325 -328 0
327 -328 0
325 -327 328 0
c gate 329 127 -328 0
127 -329 0
-328 -329 0
-127 328 329 0
c gate 330 -324 329 0
-324 -330 0
329 -330 0
324 -329 330 0
c gate 331 -45 125 0
-45 -331 0
125 -331 0
45 -125 331 0
c gate 332 -47 -125 0
-47 -332 0
-125 -332 0
47 125 332 0
c gate 333 124 -332 0
124 -333 0
-332 -333 0
-124 332 333 0
c gate 334 -331 333 0
-331 -334 0
333 -334 0
331 -333 334 0
c gate 335 -46 125 0
-46 -335 0
125 -335 0
46 -125 335 0
c gate 336 -48 -125 0
-48 -336 0
-125 -336 0
48 125 336 0
c gate 337 -124 -336 0
-124 -337 0
-336 -337 0
124 336 337 0
c gate 338 -335 337 0
-335 -338 0
337 -338 0
335 -337 338 0
c gate 339 -334 -338 0
-334 -339 0
-338 -339 0
334 338 339 0
c gate 340 -127 339 0
-127 -340 0
339 -340 0
127 -339 340 0
c gate 341 -126 -340 0
-126 -341 0
-340 -341 0
126 340 341 0
c gate 342 -330 341 0
-330 -342 0
341 -342 0
330 -341 342 0
c gate 343 -34 125 0
-34 -343 0
125 -343 0
34 -125 343 0
c gate 344 -36 -125 0
-36 -344 0
-125 -344 0
36 125 344 0
c gate 345 -124 -344 0
-124 -345 0
-344 -345 0
124 344 345 0
c gate 346 -343 345 0
-343 -346 0
345 -346 0
343 -345 346 0
c gate 347 -33 125 0
-33 -347 0
125 -347 0
33 -125 347 0
c gate 348 -35 -125 0
-35 -348 0
-125 -348 0
35 125 348 0
c gate 349 124 -348 0
124 -349 0
-348 -349 0
-124 348 349 0
c gate 350 -347 349 0
-347 -350 0
349 -350 0
347 -349 350 0
c gate 351 127 -350 0
127 -351 0
-350 -351 0
-127 350 351 0
c gate 352 -346 351 0
-346 -352 0
351 -352 0
346 -351 352 0
c gate 353 -41 125 0
-41 -353 0
125 -353 0
41 -125 353 0
c gate 354 -43 -125 0
-43 -354 0
-125 -354 0
43 125 354 0
c gate 355 124 -354 0
124 -355 0
-354 -355 0
-124 354 355 0
c gate 356 -353 355 0
-353 -356 0
355 -356 0
353 -355 356 0
c gate 357 -42 125 0
-42 -357 0
125 -357 0
42 -125 357 0
c gate 358 -44 -125 0
-44 -358 0
-125 -358 0
44 125 358 0
c gate 359 -124 -358 0
-124 -359 0
-358 -359 0
124 358 359 0
c gate 360 -357 359 0
-357 -360 0
359 -360 0
357 -359 360 0
c gate 361 -356 -360 0
-356 -361 0
-360 -361 0
356 360 361 0
c gate 362 -127 361 0
-127 -362 0
361 -362 0
127 -361 362 0
c gate 363 126 -362 0
126 -363 0
-362 -363 0
-126 362 363 0
c gate 364 -352 363 0
-352 -364 0
363 -364 0
352 -363 364 0
c gate 365 -342 -364 0
-342 -365 0
-364 -365 0
342 364 365 0
c gate 366 129 -365 0
129 -366 0
-365 -366 0
-129 365 366 0
c gate 367 124 242 0
124 -367 0
242 -367 0
-124 -242 367 0
c gate 368 -66 125 0
-66 -368 0
125 -368 0
66 -125 368 0
c gate 369 -68 -125 0
-68 -369 0
-125 -369 0
68 125 369 0
c gate 370 -124 -369 0
-124 -370 0
-369 -370 0
124 369 370 0
c gate 371 -368 370 0
-368 -371 0
370 -371 0
368 -370 371 0
c gate 372 127 -371 0
127 -372 0
-371 -372 0
-127 371 372 0
c gate 373 -367 372 0
-367 -373 0
372 -373 0
367 -372 373 0
c gate 374 124 232 0
124 -374 0
232 -374 0
-124 -232 374 0
c gate 375 -74 125 0
-74 -375 0
125 -375 0
74 -125 375 0
c gate 376 -76 -125 0
-76 -376 0
-125 -376 0
76 125 376 0
c gate 377 -124 -376 0
-124 -377 0
-376 -377 0
124 376 377 0
c gate 378 -375 377 0
-375 -378 0
377 -378 0
375 -377 378 0
c gate 379 -127 -378 0
-127 -379 0
-378 -379 0
127 378 379 0
c gate 380 -374 379 0
-374 -380 0
379 -380 0
374 -379 380 0
c gate 381 -373 -380 0
-373 -381 0
-380 -381 0
373 380 381 0
c gate 382 126 -381 0
126 -382 0
-381 -382 0
-126 381 382 0
c gate 383 124 264 0
124 -383 0
264 -383 0
-124 -264 383 0
c gate 384 -78 125 0
-78 -384 0
125 -384 0
78 -125 384 0
c gate 385 -80 -125 0
-80 -385 0
-125 -385 0
80 125 385 0
c gate 386 -124 -385 0
-124 -386 0
-385 -386 0
124 385 386 0
c gate 387 -384 386 0
-384 -387 0
386 -387 0
384 -386 387 0
c gate 388 -127 -387 0
-127 -388 0
-387 -388 0
127 387 388 0
c gate 389 -383 388 0
-383 -389 0
388 -389 0
383 -388 389 0
c gate 390 124 254 0
124 -390 0
254 -390 0
-124 -254 390 0
c gate 391 -70 125 0
-70 -391 0
125 -391 0
70 -125 391 0
c gate 392 -72 -125 0
-72 -392 0
-125 -392 0
72 125 392 0
c gate 393 -124 -392 0
-124 -393 0
-392 -393 0
124 392 393 0
c gate 394 -391 393 0
-391 -394 0
393 -394 0
391 -393 394 0
c gate 395 127 -394 0
127 -395 0
-394 -395 0
-127 394 395 0
c gate 396 -390 395 0
-390 -396 0
395 -396 0
390 -395 396 0
c gate 397 -389 -396 0
-389 -397 0
-396 -397 0
389 396 397 0
c gate 398 -126 -397 0
-126 -398 0
-397 -398 0
126 397 398 0
c gate 399 -129 -398 0
-129 -399 0
-398 -399 0
129 398 399 0
c gate 400 -382 399 0
-382 -400 0
399 -400 0
382 -399 400 0
c gate 401 -366 -400 0
-366 -401 0
-400 -401 0
366 400 401 0
c gate 402 128 -401 0
128 -402 0
-401 -402 0
-128 401 402 0
c gate 403 130 402 0
130 -403 0
402 -403 0
-130 -402 403 0
c gate 404 21 125 0
21 -404 0
125 -404 0
-21 -125 404 0
c gate 405 23 -125 0
23 -405 0
-125 -405 0
-23 125 405 0
c gate 406 124 -405 0
124 -406 0
-405 -406 0
-124 405 406 0
c gate 407 -404 406 0
-404 -407 0
406 -407 0
404 -406 407 0
c gate 408 22 125 0
22 -408 0
125 -408 0
-22 -125 408 0
c gate 409 24 -125 0
24 -409 0
-125 -409 0
-24 125 409 0
c gate 410 -124 -409 0
-124 -410 0
-409 -410 0
124 409 410 0
c gate 411 -408 410 0
-408 -411 0
410 -411 0
408 -410 411 0
c gate 412 -127 -411 0
-127 -412 0
-411 -412 0
127 411 412 0
c gate 413 -407 412 0
-407 -413 0
412 -413 0
407 -412 413 0
c gate 414 14 125 0
14 -414 0
125 -414 0
-14 -125 414 0
c gate 415 16 -125 0
16 -415 0
-125 -415 0
-16 125 415 0
c gate 416 -124 -415 0
-124 -416 0
-415 -416 0
124 415 416 0
c gate 417 -414 416 0
-414 -417 0
416 -417 0
414 -416 417 0
c gate 418 13 125 0
13 -418 0
125 -418 0
-13 -125 418 0
c gate 419 15 -125 0
15 -419 0
-125 -419 0
-15 125 419 0
c gate 420 124 -419 0
124 -420 0
-419 -420 0
-124 419 420 0
c gate 421 -418 420 0
-418 -421 0
420 -421 0
418 -420 421 0
c gate 422 127 -421 0
127 -422 0
-421 -422 0
-127 421 422 0
c gate 423 -417 422 0
-417 -423 0
422 -423 0
417 -422 423 0
c gate 424 -126 -423 0
-126 -424 0
-423 -424 0
126 423 424 0
c gate 425 -413 424 0
-413 -425 0
424 -425 0
413 -424 425 0
c gate 426 17 125 0
17 -426 0
125 -426 0
-17 -125 426 0
c gate 427 19 -125 0
19 -427 0
-125 -427 0
-19 125 427 0
c gate 428 124 -427 0
124 -428 0
-427 -428 0
-124 427 428 0
c gate 429 -426 428 0
-426 -429 0
428 -429 0
426 -428 429 0
c gate 430 18 125 0
18 -430 0
125 -430 0
-18 -125 430 0
c gate 431 20 -125 0
20 -431 0
-125 -431 0
-20 125 431 0
c gate 432 -124 -431 0
-124 -432 0
-431 -432 0
124 431 432 0
c gate 433 -430 432 0
-430 -433 0
432 -433 0
430 -432 433 0
c gate 434 -127 -433 0
-127 -434 0
-433 -434 0
127 433 434 0
c gate 435 -429 434 0
-429 -435 0
434 -435 0
429 -434 435 0
c gate 436 10 125 0
10 -436 0
125 -436 0
-10 -125 436 0
c gate 437 12 -125 0
12 -437 0
-125 -437 0
-12 125 437 0
c gate 438 -124 -437 0
-124 -438 0
-437 -438 0
124 437 438 0
c gate 439 -436 438 0
-436 -439 0
438 -439 0
436 -438 439 0
c gate 440 9 125 0
9 -440 0
125 -440 0
-9 -125 440 0
c gate 441 11 -125 0
11 -441 0
-125 -441 0
-11 125 441 0
c gate 442 124 -441 0
124 -442 0
-441 -442 0
-124 441 442 0
c gate 443 -440 442 0
-440 -443 0
442 -443 0
440 -442 443 0
c gate 444 127 -443 0
127 -444 0
-443 -444 0
-127 443 444 0
c gate 445 -439 444 0
-439 -445 0
444 -445 0
439 -444 445 0
c gate 446 126 -445 0
126 -446 0
-445 -446 0
-126 445 446 0
c gate 447 -435 446 0
-435 -447 0
446 -447 0
435 -446 447 0
c gate 448 -425 -447 0
-425 -448 0
-447 -448 0
425 447 448 0
c gate 449 129 -448 0
129 -449 0
-448 -449 0
-129 448 449 0
c gate 450 -49 125 0
-49 -450 0
125 -450 0
49 -125 450 0
c gate 451 -51 -125 0
-51 -451 0
-125 -451 0
51 125 451 0
c gate 452 124 -451 0
124 -452 0
-451 -452 0
-124 451 452 0
c gate 453 -450 452 0
-450 -453 0
452 -453 0
450 -452 453 0
c gate 454 -50 125 0
-50 -454 0
125 -454 0
50 -125 454 0
c gate 455 -52 -125 0
-52 -455 0
-125 -455 0
52 125 455 0
c gate 456 -124 -455 0
-124 -456 0
-455 -456 0
124 455 456 0
c gate 457 -454 456 0
-454 -457 0
456 -457 0
454 -456 457 0
c gate 458 -453 -457 0
-453 -458 0
-457 -458 0
453 457 458 0
c gate 459 -127 -458 0
-127 -459 0
-458 -459 0
127 458 459 0
c gate 460 127 -361 0
127 -460 0
-361 -460 0
-127 361 460 0
c gate 461 126 -460 0
126 -461 0
-460 -461 0
-126 460 461 0
c gate 462 -459 461 0
-459 -462 0
461 -462 0
459 -461 462 0
c gate 463 -53 125 0
-53 -463 0
125 -463 0
53 -125 463 0
c gate 464 -55 -125 0
-55 -464 0
-125 -464 0
55 125 464 0
c gate 465 124 -464 0
124 -465 0
-464 -465 0
-124 464 465 0
c gate 466 -463 465 0
-463 -466 0
465 -466 0
463 -465 466 0
c gate 467 -54 125 0
-54 -467 0
125 -467 0
54 -125 467 0
c gate 468 -56 -125 0
-56 -468 0
-125 -468 0
56 125 468 0
c gate 469 -124 -468 0
-124 -469 0
-468 -469 0
124 468 469 0
c gate 470 -467 469 0
-467 -470 0
469 -470 0
467 -469 470 0
c gate 471 -466 -470 0
-466 -471 0
-470 -471 0
466 470 471 0
c gate 472 -127 -471 0
-127 -472 0
-471 -472 0
127 471 472 0
c gate 473 127 -339 0
127 -473 0
-339 -473 0
-127 339 473 0
c gate 474 -126 -473 0
-126 -474 0
-473 -474 0
126 473 474 0
c gate 475 -472 474 0
-472 -475 0
474 -475 0
472 -474 475 0
c gate 476 -462 -475 0
-462 -476 0
-475 -476 0
462 475 476 0
c gate 477 -129 -476 0
-129 -477 0
-476 -477 0
129 476 477 0
c gate 478 128 -477 0
128 -478 0
-477 -478 0
-128 477 478 0
c gate 479 -449 478 0
-449 -479 0
478 -479 0
449 -478 479 0
c gate 480 130 479 0
130 -480 0
479 -480 0
-130 -479 480 0
c gate 481 -56 125 0
-56 -481 0
125 -481 0
56 -125 481 0
c gate 482 -58 -125 0
-58 -482 0
-125 -482 0
58 125 482 0
c gate 483 -124 -482 0
-124 -483 0
-482 -483 0
124 482 483 0
c gate 484 -481 483 0
-481 -484 0
483 -484 0
481 -483 484 0
c gate 485 -55 125 0
-55 -485 0
125 -485 0
55 -125 485 0
c gate 486 -57 -125 0
-57 -486 0
-125 -486 0
57 125 486 0
c gate 487 124 -486 0
124 -487 0
-486 -487 0
-124 486 487 0
c gate 488 -485 487 0
-485 -488 0
487 -488 0
485 -487 488 0
c gate 489 -484 -488 0
-484 -489 0
-488 -489 0
484 488 489 0
c gate 490 127 -489 0
127 -490 0
-489 -490 0
-127 489 490 0
c gate 491 -63 125 0
-63 -491 0
125 -491 0
63 -125 491 0
c gate 492 -65 -125 0
-65 -492 0
-125 -492 0
65 125 492 0
c gate 493 -491 -492 0
-491 -493 0
-492 -493 0
491 492 493 0
c gate 494 124 -493 0
124 -494 0
-493 -494 0
-124 493 494 0
c gate 495 -124 -238 0
-124 -495 0
-238 -495 0
124 238 495 0
c gate 496 -127 -495 0
-127 -496 0
-495 -496 0
127 495 496 0
c gate 497 -494 496 0
-494 -497 0
496 -497 0
494 -496 497 0
c gate 498 -490 -497 0
-490 -498 0
-497 -498 0
490 497 498 0
c gate 499 -126 -498 0
-126 -499 0
-498 -499 0
126 498 499 0
c gate 500 54 -125 0
54 -500 0
-125 -500 0
-54 125 500 0
c gate 501 52 125 0
52 -501 0
125 -501 0
-52 -125 501 0
c gate 502 -124 -501 0
-124 -502 0
-501 -502 0
124 501 502 0
c gate 503 -500 502 0
-500 -503 0
502 -503 0
500 -502 503 0
c gate 504 51 125 0
51 -504 0
125 -504 0
-51 -125 504 0
c gate 505 53 -125 0
53 -505 0
-125 -505 0
-53 125 505 0
c gate 506 124 -505 0
124 -506 0
-505 -506 0
-124 505 506 0
c gate 507 -504 506 0
-504 -507 0
506 -507 0
504 -506 507 0
c gate 508 -503 -507 0
-503 -508 0
-507 -508 0
503 507 508 0
c gate 509 127 -508 0
127 -509 0
-508 -509 0
-127 508 509 0
c gate 510 61 -125 0
61 -510 0
-125 -510 0
-61 125 510 0
c gate 511 59 125 0
59 -511 0
125 -511 0
-59 -125 511 0
c gate 512 124 -511 0
124 -512 0
-511 -512 0
-124 511 512 0
c gate 513 -510 512 0
-510 -513 0
512 -513 0
510 -512 513 0
c gate 514 60 125 0
60 -514 0
125 -514 0
-60 -125 514 0
c gate 515 62 -125 0
62 -515 0
-125 -515 0
-62 125 515 0
c gate 516 -124 -515 0
-124 -516 0
-515 -516 0
124 515 516 0
c gate 517 -514 516 0
-514 -517 0
516 -517 0
514 -516 517 0
c gate 518 -513 -517 0
-513 -518 0
-517 -518 0
513 517 518 0
c gate 519 -127 -518 0
-127 -519 0
-518 -519 0
127 518 519 0
c gate 520 126 -519 0
126 -520 0
-519 -520 0
-126 519 520 0
c gate 521 -509 520 0
-509 -521 0
520 -521 0
509 -520 521 0
c gate 522 -499 -521 0
-499 -522 0
-521 -522 0
499 521 522 0
c gate 523 -129 -522 0
-129 -523 0
-522 -523 0
129 522 523 0
c gate 524 27 125 0
27 -524 0
125 -524 0
-27 -125 524 0
c gate 525 29 -125 0
29 -525 0
-125 -525 0
-29 125 525 0
c gate 526 124 -525 0
124 -526 0
-525 -526 0
-124 525 526 0
c gate 527 -524 526 0
-524 -527 0
526 -527 0
524 -526 527 0
c gate 528 28 125 0
28 -528 0
125 -528 0
-28 -125 528 0
c gate 529 30 -125 0
30 -529 0
-125 -529 0
-30 125 529 0
c gate 530 -124 -529 0
-124 -530 0
-529 -530 0
124 529 530 0
c gate 531 -528 530 0
-528 -531 0
530 -531 0
528 -530 531 0
c gate 532 -527 -531 0
-527 -532 0
-531 -532 0
527 531 532 0
c gate 533 -127 -532 0
-127 -533 0
-532 -533 0
127 532 533 0
c gate 534 19 125 0
19 -534 0
125 -534 0
-19 -125 534 0
c gate 535 21 -125 0
21 -535 0
-125 -535 0
-21 125 535 0
c gate 536 124 -535 0
124 -536 0
-535 -536 0
-124 535 536 0
c gate 537 -534 536 0
-534 -537 0
536 -537 0
534 -536 537 0
c gate 538 20 125 0
20 -538 0
125 -538 0
-20 -125 538 0
c gate 539 22 -125 0
22 -539 0
-125 -539 0
-22 125 539 0
c gate 540 -124 -539 0
-124 -540 0
-539 -540 0
124 539 540 0
c gate 541 -538 540 0
-538 -541 0
540 -541 0
538 -540 541 0
c gate 542 -537 -541 0
-537 -542 0
-541 -542 0
537 541 542 0
c gate 543 127 -542 0
127 -543 0
-542 -543 0
-127 542 543 0
c gate 544 -533 -543 0
-533 -544 0
-543 -544 0
533 543 544 0
c gate 545 126 -544 0
126 -545 0
-544 -545 0
-126 544 545 0
c gate 546 24 125 0
24 -546 0
125 -546 0
-24 -125 546 0
c gate 547 26 -125 0
26 -547 0
-125 -547 0
-26 125 547 0
c gate 548 -124 -547 0
-124 -548 0
-547 -548 0
124 547 548 0
c gate 549 -546 548 0
-546 -549 0
548 -549 0
546 -548 549 0
c gate 550 23 125 0
23 -550 0
125 -550 0
-23 -125 550 0
c gate 551 25 -125 0
25 -551 0
-125 -551 0
-25 125 551 0
c gate 552 124 -551 0
124 -552 0
-551 -552 0
-124 551 552 0
c gate 553 -550 552 0
-550 -553 0
552 -553 0
550 -552 553 0
c gate 554 -549 -553 0
-549 -554 0
-553 -554 0
549 553 554 0
c gate 555 127 -554 0
127 -555 0
-554 -555 0
-127 554 555 0
c gate 556 32 125 0
32 -556 0
125 -556 0
-32 -125 556 0
c gate 557 34 -125 0
34 -557 0
-125 -557 0
-34 125 557 0
c gate 558 -124 -557 0
-124 -558 0
-557 -558 0
124 557 558 0
c gate 559 -556 558 0
-556 -559 0
558 -559 0
556 -558 559 0
c gate 560 31 125 0
31 -560 0
125 -560 0
-31 -125 560 0
c gate 561 33 -125 0
33 -561 0
-125 -561 0
-33 125 561 0
c gate 562 124 -561 0
124 -562 0
-561 -562 0
-124 561 562 0
c gate 563 -560 562 0
-560 -563 0
562 -563 0
560 -562 563 0
c gate 564 -559 -563 0
-559 -564 0
-563 -564 0
559 563 564 0
c gate 565 -127 -564 0
-127 -565 0
-564 -565 0
127 564 565 0
c gate 566 -555 -565 0
-555 -566 0
-565 -566 0
555 565 566 0
c gate 567 -126 -566 0
-126 -567 0
-566 -567 0
126 566 567 0
c gate 568 129 -567 0
129 -568 0
-567 -568 0
-129 567 568 0
c gate 569 -545 568 0
-545 -569 0
568 -569 0
545 -568 569 0
c gate 570 -523 -569 0
-523 -570 0
-569 -570 0
523 569 570 0
c gate 571 128 -570 0
128 -571 0
-570 -571 0
-128 570 571 0
c gate 572 130 571 0
130 -572 0
571 -572 0
-130 -571 572 0
c gate 573 -480 -572 0
-480 -573 0
-572 -573 0
480 572 573 0
c gate 574 -403 573 0
-403 -574 0
573 -574 0
403 -573 574 0
c gate 575 -130 479 0
-130 -575 0
479 -575 0
130 -479 575 0
c gate 576 574 -575 0
574 -576 0
-575 -576 0
-574 575 576 0
c gate 577 124 137 0
124 -577 0
137 -577 0
-124 -137 577 0
c gate 578 -89 -125 0
-89 -578 0
-125 -578 0
89 125 578 0
c gate 579 -87 125 0
-87 -579 0
125 -579 0
87 -125 579 0
c gate 580 -124 -579 0
-124 -580 0
-579 -580 0
124 579 580 0
c gate 581 -578 580 0
-578 -581 0
580 -581 0
578 -580 581 0
c gate 582 127 -581 0
127 -582 0
-581 -582 0
-127 581 582 0
c gate 583 -577 582 0
-577 -583 0
582 -583 0
577 -582 583 0
c gate 584 124 147 0
124 -584 0
147 -584 0
-124 -147 584 0
c gate 585 -124 296 0
-124 -585 0
296 -585 0
124 -296 585 0
c gate 586 -127 -585 0
-127 -586 0
-585 -586 0
127 585 586 0
c gate 587 -584 586 0
-584 -587 0
586 -587 0
584 -586 587 0
c gate 588 -583 -587 0
-583 -588 0
-587 -588 0
583 587 588 0
c gate 589 126 -588 0
126 -589 0
-588 -589 0
-126 588 589 0
c gate 590 -98 125 0
-98 -590 0
125 -590 0
98 -125 590 0
c gate 591 -100 -125 0
-100 -591 0
-125 -591 0
100 125 591 0
c gate 592 124 -591 0
124 -592 0
-591 -592 0
-124 591 592 0
c gate 593 -590 592 0
-590 -593 0
592 -593 0
590 -592 593 0
c gate 594 -124 274 0
-124 -594 0
274 -594 0
124 -274 594 0
c gate 595 -127 -594 0
-127 -595 0
-594 -595 0
127 594 595 0
c gate 596 -593 595 0
-593 -596 0
595 -596 0
593 -595 596 0
c gate 597 124 159 0
124 -597 0
159 -597 0
-124 -159 597 0
c gate 598 -93 -125 0
-93 -598 0
-125 -598 0
93 125 598 0
c gate 599 -91 125 0
-91 -599 0
125 -599 0
91 -125 599 0
c gate 600 -124 -599 0
-124 -600 0
-599 -600 0
124 599 600 0
c gate 601 -598 600 0
-598 -601 0
600 -601 0
598 -600 601 0
c gate 602 127 -601 0
127 -602 0
-601 -602 0
-127 601 602 0
c gate 603 -597 602 0
-597 -603 0
602 -603 0
597 -602 603 0
c gate 604 -596 -603 0
-596 -604 0
-603 -604 0
596 603 604 0
c gate 605 -126 -604 0
-126 -605 0
-604 -605 0
126 604 605 0
c gate 606 129 -605 0
129 -606 0
-605 -606 0
-129 605 606 0
c gate 607 -589 606 0
-589 -607 0
606 -607 0
589 -606 607 0
c gate 608 124 193 0
124 -608 0
193 -608 0
-124 -193 608 0
c gate 609 -4 -125 0
-4 -609 0
-125 -609 0
4 125 609 0
c gate 610 -2 125 0
-2 -610 0
125 -610 0
2 -125 610 0
c gate 611 -124 -610 0
-124 -611 0
-610 -611 0
124 610 611 0
c gate 612 -609 611 0
-609 -612 0
611 -612 0
609 -611 612 0
c gate 613 -127 -612 0
-127 -613 0
-612 -613 0
127 612 613 0
c gate 614 -608 613 0
-608 -614 0
613 -614 0
608 -613 614 0
c gate 615 124 183 0
124 -615 0
183 -615 0
-124 -183 615 0
c gate 616 -119 -125 0
-119 -616 0
-125 -616 0
119 125 616 0
c gate 617 -117 125 0
-117 -617 0
125 -617 0
117 -125 617 0
c gate 618 -124 -617 0
-124 -618 0
-617 -618 0
124 617 618 0
c gate 619 -616 618 0
-616 -619 0
618 -619 0
616 -618 619 0
c gate 620 127 -619 0
127 -620 0
-619 -620 0
-127 619 620 0
c gate 621 -615 620 0
-615 -621 0
620 -621 0
615 -620 621 0
c gate 622 -614 -621 0
-614 -622 0
-621 -622 0
614 621 622 0
c gate 623 126 -622 0
126 -623 0
-622 -623 0
-126 622 623 0
c gate 624 6 125 0
6 -624 0
125 -624 0
-6 -125 624 0
c gate 625 8 -125 0
8 -625 0
-125 -625 0
-8 125 625 0
c gate 626 -124 -625 0
-124 -626 0
-625 -626 0
124 625 626 0
c gate 627 -624 626 0
-624 -627 0
626 -627 0
624 -626 627 0
c gate 628 5 125 0
5 -628 0
125 -628 0
-5 -125 628 0
c gate 629 7 -125 0
7 -629 0
-125 -629 0
-7 125 629 0
c gate 630 124 -629 0
124 -630 0
-629 -630 0
-124 629 630 0
c gate 631 -628 630 0
-628 -631 0
630 -631 0
628 -630 631 0
c gate 632 -627 -631 0
-627 -632 0
-631 -632 0
627 631 632 0
c gate 633 -127 -632 0
-127 -633 0
-632 -633 0
127 632 633 0
c gate 634 123 -125 0
123 -634 0
-125 -634 0
-123 125 634 0
c gate 635 121 125 0
121 -635 0
125 -635 0
-121 -125 635 0
c gate 636 -634 -635 0
-634 -636 0
-635 -636 0
634 635 636 0
c gate 637 -124 -636 0
-124 -637 0
-636 -637 0
124 636 637 0
c gate 638 124 205 0
124 -638 0
205 -638 0
-124 -205 638 0
c gate 639 127 -638 0
127 -639 0
-638 -639 0
-127 638 639 0
c gate 640 -637 639 0
-637 -640 0
639 -640 0
637 -639 640 0
c gate 641 -633 -640 0
-633 -641 0
-640 -641 0
633 640 641 0
c gate 642 -126 -641 0
-126 -642 0
-641 -642 0
126 641 642 0
c gate 643 -623 -642 0
-623 -643 0
-642 -643 0
623 642 643 0
c gate 644 -129 643 0
-129 -644 0
643 -644 0
129 -643 644 0
c gate 645 128 -644 0
128 -645 0
-644 -645 0
-128 644 645 0
c gate 646 -607 645 0
-607 -646 0
645 -646 0
607 -645 646 0
c gate 647 130 646 0
130 -647 0
646 -647 0
-130 -646 647 0
c gate 648 -225 -647 0
-225 -648 0
-647 -648 0
225 647 648 0
c gate 649 -320 648 0
-320 -649 0
648 -649 0
320 -648 649 0
c gate 650 -576 649 0
-576 -650 0
649 -650 0
576 -649 650 0
c gate 651 -130 571 0
-130 -651 0
571 -651 0
130 -571 651 0
c gate 652 -130 402 0
-130 -652 0
402 -652 0
130 -402 652 0
c gate 653 -651 -652 0
-651 -653 0
-652 -653 0
651 652 653 0
c gate 654 -650 653 0
-650 -654 0
653 -654 0
650 -653 654 0
c gate 655 127 532 0
127 -655 0
532 -655 0
-127 -532 655 0
c gate 656 -35 125 0
-35 -656 0
125 -656 0
35 -125 656 0
c gate 657 -37 -125 0
-37 -657 0
-125 -657 0
37 125 657 0
c gate 658 124 -657 0
124 -658 0
-657 -658 0
-124 657 658 0
c gate 659 -656 658 0
-656 -659 0
658 -659 0
656 -658 659 0
c gate 660 -36 125 0
-36 -660 0
125 -660 0
36 -125 660 0
c gate 661 -38 -125 0
-38 -661 0
-125 -661 0
38 125 661 0
c gate 662 -124 -661 0
-124 -662 0
-661 -662 0
124 661 662 0
c gate 663 -660 662 0
-660 -663 0
662 -663 0
660 -662 663 0
c gate 664 -659 -663 0
-659 -664 0
-663 -664 0
659 663 664 0
c gate 665 -127 -664 0
-127 -665 0
-664 -665 0
127 664 665 0
c gate 666 -126 -665 0
-126 -666 0
-665 -666 0
126 665 666 0
c gate 667 -655 666 0
-655 -667 0
666 -667 0
655 -666 667 0
c gate 668 126 -566 0
126 -668 0
-566 -668 0
-126 566 668 0
c gate 669 -129 -668 0
-129 -669 0
-668 -669 0
129 668 669 0
c gate 670 -667 669 0
-667 -670 0
669 -670 0
667 -669 670 0
c gate 671 129 643 0
129 -671 0
643 -671 0
-129 -643 671 0
c gate 672 128 -671 0
128 -672 0
-671 -672 0
-128 671 672 0
c gate 673 -670 672 0
-670 -673 0
672 -673 0
670 -672 673 0
c gate 674 130 673 0
130 -674 0
673 -674 0
-130 -673 674 0
c gate 675 -654 -674 0
-654 -675 0
-674 -675 0
654 674 675 0
c gate 676 -574 -675 0
-574 -676 0
-675 -676 0
574 675 676 0
c gate 677 -320 676 0
-320 -677 0
676 -677 0
320 -676 677 0
c gate 678 -130 319 0
-130 -678 0
319 -678 0
130 -319 678 0
c gate 679 -130 224 0
-130 -679 0
224 -679 0
130 -224 679 0
c gate 680 -678 -679 0
-678 -680 0
-679 -680 0
678 679 680 0
c gate 681 -130 646 0
-130 -681 0
646 -681 0
130 -646 681 0
c gate 682 680 -681 0
680 -682 0
-681 -682 0
-680 681 682 0
c gate 683 -130 673 0
-130 -683 0
673 -683 0
130 -673 683 0
c gate 684 682 -683 0
682 -684 0
-683 -684 0
-682 683 684 0
c gate 685 -320 684 0
-320 -685 0
684 -685 0
320 -684 685 0
c gate 686 -575 -685 0
-575 -686 0
-685 -686 0
575 685 686 0
c gate 687 675 686 0
675 -687 0
686 -687 0
-675 -686 687 0
c gate 688 -677 -687 0
-677 -688 0
-687 -688 0
677 687 688 0
c gate 689 -225 -688 0
-225 -689 0
-688 -689 0
225 688 689 0
c gate 690 225 688 0
225 -690 0
688 -690 0
-225 -688 690 0
c gate 691 -689 -690 0
-689 -691 0
-690 -691 0
689 690 691 0
c PO
-691 0
